3
Optimization step: 0. E: -75.563443218527
O     0.000000     0.000000    -0.299090
H     0.000000    -2.672476     2.373386
H     0.000000     2.672476     2.373386
3
Optimization step: 1. E: -75.63115690916331
O     0.000000     0.000000    -0.284909
H     0.000000    -2.303218     2.260857
H     0.000000     2.303218     2.260857
3
Optimization step: 2. E: -75.79257004761244
O     0.000000     0.000000    -0.225781
H     0.000000    -1.833214     1.791653
H     0.000000     1.833214     1.791653
3
Optimization step: 3. E: -75.95800637364661
O     0.000000     0.000000    -0.152983
H     0.000000    -1.503167     1.213974
H     0.000000     1.503167     1.213974
3
Optimization step: 4. E: -75.73430744511707
O     0.000000     0.000000    -0.094631
H     0.000000    -1.027175     0.750935
H     0.000000     1.027175     0.750935
3
Optimization step: 5. E: -75.90745210277373
O     0.000000     0.000000    -0.106070
H     0.000000    -1.171411     0.841704
H     0.000000     1.171411     0.841704
3
Optimization step: 6. E: -75.96565571299196
O     0.000000     0.000000    -0.105845
H     0.000000    -1.330476     0.839915
H     0.000000     1.330476     0.839915
3
Optimization step: 7. E: -75.98386936692759
O     0.000000     0.000000    -0.121583
H     0.000000    -1.489837     0.964802
H     0.000000     1.489837     0.964802
3
Optimization step: 8. E: -75.98498978751303
O     0.000000     0.000000    -0.110757
H     0.000000    -1.467445     0.878895
H     0.000000     1.467445     0.878895
3
Optimization step: 9. E: -75.98521131252484
O     0.000000     0.000000    -0.111459
H     0.000000    -1.474589     0.884464
H     0.000000     1.474589     0.884464
3
Optimization step: 10. E: -75.98531873600183
O     0.000000     0.000000    -0.112317
H     0.000000    -1.479682     0.891273
H     0.000000     1.479682     0.891273
3
Optimization step: 11. E: -75.98534190513311
O     0.000000     0.000000    -0.112786
H     0.000000    -1.482640     0.894996
H     0.000000     1.482640     0.894996
3
Optimization step: 12. E: -75.98534375379337
O     0.000000     0.000000    -0.112987
H     0.000000    -1.483801     0.896593
H     0.000000     1.483801     0.896593
